minimize
obj: 285 x_1,1_ + 187 x_2,1_ + 240 x_3,1_ + 91 x_4,1_ + 90 x_5,1_ + 161 x_6,1_ + 75 x_7,1_ + 336 x_8,1_ + 280 x_1,2_ + 269 x_2,2_ + 479 x_3,2_ + 216 x_4,2_ + 315 x_5,2_ + 401 x_6,2_ + 188 x_7,2_ + 122 x_8,2_ + 466 x_1,3_ + 136 x_2,3_ + 250 x_3,3_ + 152 x_4,3_ + 217 x_5,3_ + 151 x_6,3_ + 252 x_7,3_ + 420 x_8,3_ + 241 x_1,4_ + 215 x_2,4_ + 367 x_3,4_ + 131 x_4,4_ + 203 x_5,4_ + 292 x_6,4_ + 78 x_7,4_ + 219 x_8,4_ + 435 x_1,5_ + 317 x_2,5_ + 56 x_3,5_ + 272 x_4,5_ + 166 x_5,5_ + 63 x_6,5_ + 284 x_7,5_ + 551 x_8,5_ + 171 x_1,6_ + 327 x_2,6_ + 442 x_3,6_ + 245 x_4,6_ + 274 x_5,6_ + 383 x_6,6_ + 155 x_7,6_ + 227 x_8,6_ + 261 x_1,7_ + 298 x_2,7_ + 164 x_3,7_ + 209 x_4,7_ + 32 x_5,7_ + 139 x_6,7_ + 142 x_7,7_ + 439 x_8,7_ + 489 x_1,8_ + 223 x_2,8_ + 188 x_3,8_ + 221 x_4,8_ + 217 x_5,8_ + 108 x_6,8_ + 292 x_7,8_ + 500 x_8,8_ + 170 x_1,9_ + 300 x_2,9_ + 404 x_3,9_ + 213 x_4,9_ + 237 x_5,9_ + 345 x_6,9_ + 116 x_7,9_ + 239 x_8,9_ + 413 x_1,10_ + 71 x_2,10_ + 401 x_3,10_ + 102 x_4,10_ + 280 x_5,10_ + 301 x_6,10_ + 210 x_7,10_ + 224 x_8,10_ + 399 x_1,11_ + 55 x_2,11_ + 315 x_3,11_ + 51 x_4,11_ + 211 x_5,11_ + 213 x_6,11_ + 180 x_7,11_ + 302 x_8,11_ + 461 x_1,12_ + 279 x_2,12_ + 113 x_3,12_ + 250 x_4,12_ + 185 x_5,12_ + 63 x_6,12_ + 288 x_7,12_ + 533 x_8,12_ + 177 x_1,13_ + 333 x_2,13_ + 453 x_3,13_ + 253 x_4,13_ + 286 x_5,13_ + 394 x_6,13_ + 165 x_7,13_ + 221 x_8,13_ + 437 x_1,14_ + 74 x_2,14_ + 291 x_3,14_ + 98 x_4,14_ + 217 x_5,14_ + 187 x_6,14_ + 217 x_7,14_ + 355 x_8,14_ + 197 x_1,15_ + 304 x_2,15_ + 441 x_3,15_ + 226 x_4,15_ + 273 x_5,15_ + 376 x_6,15_ + 148 x_7,15_ + 202 x_8,15_ + 172 x_1,16_ + 346 x_2,16_ + 246 x_3,16_ + 247 x_4,16_ + 112 x_5,16_ + 231 x_6,16_ + 134 x_7,16_ + 420 x_8,16_ + 100 x_1,17_ + 359 x_2,17_ + 326 x_3,17_ + 259 x_4,17_ + 176 x_5,17_ + 299 x_6,17_ + 130 x_7,17_ + 371 x_8,17_ + 461 x_1,18_ + 31 x_2,18_ + 393 x_3,18_ + 123 x_4,18_ + 295 x_5,18_ + 290 x_6,18_ + 249 x_7,18_ + 279 x_8,18_ + 457 x_1,19_ + 51 x_2,19_ + 410 x_3,19_ + 128 x_4,19_ + 304 x_5,19_ + 307 x_6,19_ + 248 x_7,19_ + 257 x_8,19_ + 229 x_1,20_ + 345 x_2,20_ + 188 x_3,20_ + 252 x_4,20_ + 83 x_5,20_ + 186 x_6,20_ + 163 x_7,20_ + 460 x_8,20_
subject to
use_branch_1,1_: 1 x_1,1_ - 1 y_1_ <= 0
use_branch_2,1_: 1 x_1,2_ - 1 y_1_ <= 0
use_branch_3,1_: 1 x_1,3_ - 1 y_1_ <= 0
use_branch_4,1_: 1 x_1,4_ - 1 y_1_ <= 0
use_branch_5,1_: 1 x_1,5_ - 1 y_1_ <= 0
use_branch_6,1_: 1 x_1,6_ - 1 y_1_ <= 0
use_branch_7,1_: 1 x_1,7_ - 1 y_1_ <= 0
use_branch_8,1_: 1 x_1,8_ - 1 y_1_ <= 0
use_branch_9,1_: 1 x_1,9_ - 1 y_1_ <= 0
use_branch_10,1_: 1 x_1,10_ - 1 y_1_ <= 0
use_branch_11,1_: 1 x_1,11_ - 1 y_1_ <= 0
use_branch_12,1_: 1 x_1,12_ - 1 y_1_ <= 0
use_branch_13,1_: 1 x_1,13_ - 1 y_1_ <= 0
use_branch_14,1_: 1 x_1,14_ - 1 y_1_ <= 0
use_branch_15,1_: 1 x_1,15_ - 1 y_1_ <= 0
use_branch_16,1_: 1 x_1,16_ - 1 y_1_ <= 0
use_branch_17,1_: 1 x_1,17_ - 1 y_1_ <= 0
use_branch_18,1_: 1 x_1,18_ - 1 y_1_ <= 0
use_branch_19,1_: 1 x_1,19_ - 1 y_1_ <= 0
use_branch_20,1_: 1 x_1,20_ - 1 y_1_ <= 0
use_branch_1,2_: 1 x_2,1_ - 1 y_2_ <= 0
use_branch_2,2_: 1 x_2,2_ - 1 y_2_ <= 0
use_branch_3,2_: 1 x_2,3_ - 1 y_2_ <= 0
use_branch_4,2_: 1 x_2,4_ - 1 y_2_ <= 0
use_branch_5,2_: 1 x_2,5_ - 1 y_2_ <= 0
use_branch_6,2_: 1 x_2,6_ - 1 y_2_ <= 0
use_branch_7,2_: 1 x_2,7_ - 1 y_2_ <= 0
use_branch_8,2_: 1 x_2,8_ - 1 y_2_ <= 0
use_branch_9,2_: 1 x_2,9_ - 1 y_2_ <= 0
use_branch_10,2_: 1 x_2,10_ - 1 y_2_ <= 0
use_branch_11,2_: 1 x_2,11_ - 1 y_2_ <= 0
use_branch_12,2_: 1 x_2,12_ - 1 y_2_ <= 0
use_branch_13,2_: 1 x_2,13_ - 1 y_2_ <= 0
use_branch_14,2_: 1 x_2,14_ - 1 y_2_ <= 0
use_branch_15,2_: 1 x_2,15_ - 1 y_2_ <= 0
use_branch_16,2_: 1 x_2,16_ - 1 y_2_ <= 0
use_branch_17,2_: 1 x_2,17_ - 1 y_2_ <= 0
use_branch_18,2_: 1 x_2,18_ - 1 y_2_ <= 0
use_branch_19,2_: 1 x_2,19_ - 1 y_2_ <= 0
use_branch_20,2_: 1 x_2,20_ - 1 y_2_ <= 0
use_branch_1,3_: 1 x_3,1_ - 1 y_3_ <= 0
use_branch_2,3_: 1 x_3,2_ - 1 y_3_ <= 0
use_branch_3,3_: 1 x_3,3_ - 1 y_3_ <= 0
use_branch_4,3_: 1 x_3,4_ - 1 y_3_ <= 0
use_branch_5,3_: 1 x_3,5_ - 1 y_3_ <= 0
use_branch_6,3_: 1 x_3,6_ - 1 y_3_ <= 0
use_branch_7,3_: 1 x_3,7_ - 1 y_3_ <= 0
use_branch_8,3_: 1 x_3,8_ - 1 y_3_ <= 0
use_branch_9,3_: 1 x_3,9_ - 1 y_3_ <= 0
use_branch_10,3_: 1 x_3,10_ - 1 y_3_ <= 0
use_branch_11,3_: 1 x_3,11_ - 1 y_3_ <= 0
use_branch_12,3_: 1 x_3,12_ - 1 y_3_ <= 0
use_branch_13,3_: 1 x_3,13_ - 1 y_3_ <= 0
use_branch_14,3_: 1 x_3,14_ - 1 y_3_ <= 0
use_branch_15,3_: 1 x_3,15_ - 1 y_3_ <= 0
use_branch_16,3_: 1 x_3,16_ - 1 y_3_ <= 0
use_branch_17,3_: 1 x_3,17_ - 1 y_3_ <= 0
use_branch_18,3_: 1 x_3,18_ - 1 y_3_ <= 0
use_branch_19,3_: 1 x_3,19_ - 1 y_3_ <= 0
use_branch_20,3_: 1 x_3,20_ - 1 y_3_ <= 0
use_branch_1,4_: 1 x_4,1_ - 1 y_4_ <= 0
use_branch_2,4_: 1 x_4,2_ - 1 y_4_ <= 0
use_branch_3,4_: 1 x_4,3_ - 1 y_4_ <= 0
use_branch_4,4_: 1 x_4,4_ - 1 y_4_ <= 0
use_branch_5,4_: 1 x_4,5_ - 1 y_4_ <= 0
use_branch_6,4_: 1 x_4,6_ - 1 y_4_ <= 0
use_branch_7,4_: 1 x_4,7_ - 1 y_4_ <= 0
use_branch_8,4_: 1 x_4,8_ - 1 y_4_ <= 0
use_branch_9,4_: 1 x_4,9_ - 1 y_4_ <= 0
use_branch_10,4_: 1 x_4,10_ - 1 y_4_ <= 0
use_branch_11,4_: 1 x_4,11_ - 1 y_4_ <= 0
use_branch_12,4_: 1 x_4,12_ - 1 y_4_ <= 0
use_branch_13,4_: 1 x_4,13_ - 1 y_4_ <= 0
use_branch_14,4_: 1 x_4,14_ - 1 y_4_ <= 0
use_branch_15,4_: 1 x_4,15_ - 1 y_4_ <= 0
use_branch_16,4_: 1 x_4,16_ - 1 y_4_ <= 0
use_branch_17,4_: 1 x_4,17_ - 1 y_4_ <= 0
use_branch_18,4_: 1 x_4,18_ - 1 y_4_ <= 0
use_branch_19,4_: 1 x_4,19_ - 1 y_4_ <= 0
use_branch_20,4_: 1 x_4,20_ - 1 y_4_ <= 0
use_branch_1,5_: 1 x_5,1_ - 1 y_5_ <= 0
use_branch_2,5_: 1 x_5,2_ - 1 y_5_ <= 0
use_branch_3,5_: 1 x_5,3_ - 1 y_5_ <= 0
use_branch_4,5_: 1 x_5,4_ - 1 y_5_ <= 0
use_branch_5,5_: 1 x_5,5_ - 1 y_5_ <= 0
use_branch_6,5_: 1 x_5,6_ - 1 y_5_ <= 0
use_branch_7,5_: 1 x_5,7_ - 1 y_5_ <= 0
use_branch_8,5_: 1 x_5,8_ - 1 y_5_ <= 0
use_branch_9,5_: 1 x_5,9_ - 1 y_5_ <= 0
use_branch_10,5_: 1 x_5,10_ - 1 y_5_ <= 0
use_branch_11,5_: 1 x_5,11_ - 1 y_5_ <= 0
use_branch_12,5_: 1 x_5,12_ - 1 y_5_ <= 0
use_branch_13,5_: 1 x_5,13_ - 1 y_5_ <= 0
use_branch_14,5_: 1 x_5,14_ - 1 y_5_ <= 0
use_branch_15,5_: 1 x_5,15_ - 1 y_5_ <= 0
use_branch_16,5_: 1 x_5,16_ - 1 y_5_ <= 0
use_branch_17,5_: 1 x_5,17_ - 1 y_5_ <= 0
use_branch_18,5_: 1 x_5,18_ - 1 y_5_ <= 0
use_branch_19,5_: 1 x_5,19_ - 1 y_5_ <= 0
use_branch_20,5_: 1 x_5,20_ - 1 y_5_ <= 0
use_branch_1,6_: 1 x_6,1_ - 1 y_6_ <= 0
use_branch_2,6_: 1 x_6,2_ - 1 y_6_ <= 0
use_branch_3,6_: 1 x_6,3_ - 1 y_6_ <= 0
use_branch_4,6_: 1 x_6,4_ - 1 y_6_ <= 0
use_branch_5,6_: 1 x_6,5_ - 1 y_6_ <= 0
use_branch_6,6_: 1 x_6,6_ - 1 y_6_ <= 0
use_branch_7,6_: 1 x_6,7_ - 1 y_6_ <= 0
use_branch_8,6_: 1 x_6,8_ - 1 y_6_ <= 0
use_branch_9,6_: 1 x_6,9_ - 1 y_6_ <= 0
use_branch_10,6_: 1 x_6,10_ - 1 y_6_ <= 0
use_branch_11,6_: 1 x_6,11_ - 1 y_6_ <= 0
use_branch_12,6_: 1 x_6,12_ - 1 y_6_ <= 0
use_branch_13,6_: 1 x_6,13_ - 1 y_6_ <= 0
use_branch_14,6_: 1 x_6,14_ - 1 y_6_ <= 0
use_branch_15,6_: 1 x_6,15_ - 1 y_6_ <= 0
use_branch_16,6_: 1 x_6,16_ - 1 y_6_ <= 0
use_branch_17,6_: 1 x_6,17_ - 1 y_6_ <= 0
use_branch_18,6_: 1 x_6,18_ - 1 y_6_ <= 0
use_branch_19,6_: 1 x_6,19_ - 1 y_6_ <= 0
use_branch_20,6_: 1 x_6,20_ - 1 y_6_ <= 0
use_branch_1,7_: 1 x_7,1_ - 1 y_7_ <= 0
use_branch_2,7_: 1 x_7,2_ - 1 y_7_ <= 0
use_branch_3,7_: 1 x_7,3_ - 1 y_7_ <= 0
use_branch_4,7_: 1 x_7,4_ - 1 y_7_ <= 0
use_branch_5,7_: 1 x_7,5_ - 1 y_7_ <= 0
use_branch_6,7_: 1 x_7,6_ - 1 y_7_ <= 0
use_branch_7,7_: 1 x_7,7_ - 1 y_7_ <= 0
use_branch_8,7_: 1 x_7,8_ - 1 y_7_ <= 0
use_branch_9,7_: 1 x_7,9_ - 1 y_7_ <= 0
use_branch_10,7_: 1 x_7,10_ - 1 y_7_ <= 0
use_branch_11,7_: 1 x_7,11_ - 1 y_7_ <= 0
use_branch_12,7_: 1 x_7,12_ - 1 y_7_ <= 0
use_branch_13,7_: 1 x_7,13_ - 1 y_7_ <= 0
use_branch_14,7_: 1 x_7,14_ - 1 y_7_ <= 0
use_branch_15,7_: 1 x_7,15_ - 1 y_7_ <= 0
use_branch_16,7_: 1 x_7,16_ - 1 y_7_ <= 0
use_branch_17,7_: 1 x_7,17_ - 1 y_7_ <= 0
use_branch_18,7_: 1 x_7,18_ - 1 y_7_ <= 0
use_branch_19,7_: 1 x_7,19_ - 1 y_7_ <= 0
use_branch_20,7_: 1 x_7,20_ - 1 y_7_ <= 0
use_branch_1,8_: 1 x_8,1_ - 1 y_8_ <= 0
use_branch_2,8_: 1 x_8,2_ - 1 y_8_ <= 0
use_branch_3,8_: 1 x_8,3_ - 1 y_8_ <= 0
use_branch_4,8_: 1 x_8,4_ - 1 y_8_ <= 0
use_branch_5,8_: 1 x_8,5_ - 1 y_8_ <= 0
use_branch_6,8_: 1 x_8,6_ - 1 y_8_ <= 0
use_branch_7,8_: 1 x_8,7_ - 1 y_8_ <= 0
use_branch_8,8_: 1 x_8,8_ - 1 y_8_ <= 0
use_branch_9,8_: 1 x_8,9_ - 1 y_8_ <= 0
use_branch_10,8_: 1 x_8,10_ - 1 y_8_ <= 0
use_branch_11,8_: 1 x_8,11_ - 1 y_8_ <= 0
use_branch_12,8_: 1 x_8,12_ - 1 y_8_ <= 0
use_branch_13,8_: 1 x_8,13_ - 1 y_8_ <= 0
use_branch_14,8_: 1 x_8,14_ - 1 y_8_ <= 0
use_branch_15,8_: 1 x_8,15_ - 1 y_8_ <= 0
use_branch_16,8_: 1 x_8,16_ - 1 y_8_ <= 0
use_branch_17,8_: 1 x_8,17_ - 1 y_8_ <= 0
use_branch_18,8_: 1 x_8,18_ - 1 y_8_ <= 0
use_branch_19,8_: 1 x_8,19_ - 1 y_8_ <= 0
use_branch_20,8_: 1 x_8,20_ - 1 y_8_ <= 0
risk_1,1_: 5 x_1,1_ <= 23
risk_2,1_: 9 x_1,2_ <= 23
risk_3,1_: 10 x_1,3_ <= 23
risk_4,1_: 11 x_1,4_ <= 23
risk_5,1_: 8 x_1,5_ <= 23
risk_6,1_: 7 x_1,6_ <= 23
risk_7,1_: 6 x_1,7_ <= 23
risk_8,1_: 5 x_1,8_ <= 23
risk_9,1_: 4 x_1,9_ <= 23
risk_10,1_: 3 x_1,10_ <= 23
risk_11,1_: 9 x_1,11_ <= 23
risk_12,1_: 6 x_1,12_ <= 23
risk_13,1_: 4 x_1,13_ <= 23
risk_14,1_: 8 x_1,14_ <= 23
risk_15,1_: 10 x_1,15_ <= 23
risk_16,1_: 2 x_1,16_ <= 23
risk_17,1_: 3 x_1,17_ <= 23
risk_18,1_: 5 x_1,18_ <= 23
risk_19,1_: 8 x_1,19_ <= 23
risk_20,1_: 9 x_1,20_ <= 23
risk_1,2_: 5 x_2,1_ <= 20
risk_2,2_: 9 x_2,2_ <= 20
risk_3,2_: 10 x_2,3_ <= 20
risk_4,2_: 11 x_2,4_ <= 20
risk_5,2_: 8 x_2,5_ <= 20
risk_6,2_: 7 x_2,6_ <= 20
risk_7,2_: 6 x_2,7_ <= 20
risk_8,2_: 5 x_2,8_ <= 20
risk_9,2_: 4 x_2,9_ <= 20
risk_10,2_: 3 x_2,10_ <= 20
risk_11,2_: 9 x_2,11_ <= 20
risk_12,2_: 6 x_2,12_ <= 20
risk_13,2_: 4 x_2,13_ <= 20
risk_14,2_: 8 x_2,14_ <= 20
risk_15,2_: 10 x_2,15_ <= 20
risk_16,2_: 2 x_2,16_ <= 20
risk_17,2_: 3 x_2,17_ <= 20
risk_18,2_: 5 x_2,18_ <= 20
risk_19,2_: 8 x_2,19_ <= 20
risk_20,2_: 9 x_2,20_ <= 20
risk_1,3_: 5 x_3,1_ <= 22
risk_2,3_: 9 x_3,2_ <= 22
risk_3,3_: 10 x_3,3_ <= 22
risk_4,3_: 11 x_3,4_ <= 22
risk_5,3_: 8 x_3,5_ <= 22
risk_6,3_: 7 x_3,6_ <= 22
risk_7,3_: 6 x_3,7_ <= 22
risk_8,3_: 5 x_3,8_ <= 22
risk_9,3_: 4 x_3,9_ <= 22
risk_10,3_: 3 x_3,10_ <= 22
risk_11,3_: 9 x_3,11_ <= 22
risk_12,3_: 6 x_3,12_ <= 22
risk_13,3_: 4 x_3,13_ <= 22
risk_14,3_: 8 x_3,14_ <= 22
risk_15,3_: 10 x_3,15_ <= 22
risk_16,3_: 2 x_3,16_ <= 22
risk_17,3_: 3 x_3,17_ <= 22
risk_18,3_: 5 x_3,18_ <= 22
risk_19,3_: 8 x_3,19_ <= 22
risk_20,3_: 9 x_3,20_ <= 22
risk_1,4_: 5 x_4,1_ <= 24
risk_2,4_: 9 x_4,2_ <= 24
risk_3,4_: 10 x_4,3_ <= 24
risk_4,4_: 11 x_4,4_ <= 24
risk_5,4_: 8 x_4,5_ <= 24
risk_6,4_: 7 x_4,6_ <= 24
risk_7,4_: 6 x_4,7_ <= 24
risk_8,4_: 5 x_4,8_ <= 24
risk_9,4_: 4 x_4,9_ <= 24
risk_10,4_: 3 x_4,10_ <= 24
risk_11,4_: 9 x_4,11_ <= 24
risk_12,4_: 6 x_4,12_ <= 24
risk_13,4_: 4 x_4,13_ <= 24
risk_14,4_: 8 x_4,14_ <= 24
risk_15,4_: 10 x_4,15_ <= 24
risk_16,4_: 2 x_4,16_ <= 24
risk_17,4_: 3 x_4,17_ <= 24
risk_18,4_: 5 x_4,18_ <= 24
risk_19,4_: 8 x_4,19_ <= 24
risk_20,4_: 9 x_4,20_ <= 24
risk_1,5_: 5 x_5,1_ <= 21
risk_2,5_: 9 x_5,2_ <= 21
risk_3,5_: 10 x_5,3_ <= 21
risk_4,5_: 11 x_5,4_ <= 21
risk_5,5_: 8 x_5,5_ <= 21
risk_6,5_: 7 x_5,6_ <= 21
risk_7,5_: 6 x_5,7_ <= 21
risk_8,5_: 5 x_5,8_ <= 21
risk_9,5_: 4 x_5,9_ <= 21
risk_10,5_: 3 x_5,10_ <= 21
risk_11,5_: 9 x_5,11_ <= 21
risk_12,5_: 6 x_5,12_ <= 21
risk_13,5_: 4 x_5,13_ <= 21
risk_14,5_: 8 x_5,14_ <= 21
risk_15,5_: 10 x_5,15_ <= 21
risk_16,5_: 2 x_5,16_ <= 21
risk_17,5_: 3 x_5,17_ <= 21
risk_18,5_: 5 x_5,18_ <= 21
risk_19,5_: 8 x_5,19_ <= 21
risk_20,5_: 9 x_5,20_ <= 21
risk_1,6_: 5 x_6,1_ <= 20
risk_2,6_: 9 x_6,2_ <= 20
risk_3,6_: 10 x_6,3_ <= 20
risk_4,6_: 11 x_6,4_ <= 20
risk_5,6_: 8 x_6,5_ <= 20
risk_6,6_: 7 x_6,6_ <= 20
risk_7,6_: 6 x_6,7_ <= 20
risk_8,6_: 5 x_6,8_ <= 20
risk_9,6_: 4 x_6,9_ <= 20
risk_10,6_: 3 x_6,10_ <= 20
risk_11,6_: 9 x_6,11_ <= 20
risk_12,6_: 6 x_6,12_ <= 20
risk_13,6_: 4 x_6,13_ <= 20
risk_14,6_: 8 x_6,14_ <= 20
risk_15,6_: 10 x_6,15_ <= 20
risk_16,6_: 2 x_6,16_ <= 20
risk_17,6_: 3 x_6,17_ <= 20
risk_18,6_: 5 x_6,18_ <= 20
risk_19,6_: 8 x_6,19_ <= 20
risk_20,6_: 9 x_6,20_ <= 20
risk_1,7_: 5 x_7,1_ <= 25
risk_2,7_: 9 x_7,2_ <= 25
risk_3,7_: 10 x_7,3_ <= 25
risk_4,7_: 11 x_7,4_ <= 25
risk_5,7_: 8 x_7,5_ <= 25
risk_6,7_: 7 x_7,6_ <= 25
risk_7,7_: 6 x_7,7_ <= 25
risk_8,7_: 5 x_7,8_ <= 25
risk_9,7_: 4 x_7,9_ <= 25
risk_10,7_: 3 x_7,10_ <= 25
risk_11,7_: 9 x_7,11_ <= 25
risk_12,7_: 6 x_7,12_ <= 25
risk_13,7_: 4 x_7,13_ <= 25
risk_14,7_: 8 x_7,14_ <= 25
risk_15,7_: 10 x_7,15_ <= 25
risk_16,7_: 2 x_7,16_ <= 25
risk_17,7_: 3 x_7,17_ <= 25
risk_18,7_: 5 x_7,18_ <= 25
risk_19,7_: 8 x_7,19_ <= 25
risk_20,7_: 9 x_7,20_ <= 25
risk_1,8_: 5 x_8,1_ <= 20
risk_2,8_: 9 x_8,2_ <= 20
risk_3,8_: 10 x_8,3_ <= 20
risk_4,8_: 11 x_8,4_ <= 20
risk_5,8_: 8 x_8,5_ <= 20
risk_6,8_: 7 x_8,6_ <= 20
risk_7,8_: 6 x_8,7_ <= 20
risk_8,8_: 5 x_8,8_ <= 20
risk_9,8_: 4 x_8,9_ <= 20
risk_10,8_: 3 x_8,10_ <= 20
risk_11,8_: 9 x_8,11_ <= 20
risk_12,8_: 6 x_8,12_ <= 20
risk_13,8_: 4 x_8,13_ <= 20
risk_14,8_: 8 x_8,14_ <= 20
risk_15,8_: 10 x_8,15_ <= 20
risk_16,8_: 2 x_8,16_ <= 20
risk_17,8_: 3 x_8,17_ <= 20
risk_18,8_: 5 x_8,18_ <= 20
risk_19,8_: 8 x_8,19_ <= 20
risk_20,8_: 9 x_8,20_ <= 20
tol_l_1,1_: -13 x_1,1_ - 10 x_1,2_ - 20 x_1,3_ - 12 x_1,4_ - 19 x_1,5_ - 20 x_1,6_ - 15 x_1,7_ - 18 x_1,8_ - 13 x_1,9_ - 11 x_1,10_ - 11 x_1,11_ - 12 x_1,12_ - 20 x_1,13_ - 16 x_1,14_ - 13 x_1,15_ - 18 x_1,16_ - 10 x_1,17_ - 15 x_1,18_ - 15 x_1,19_ - 18 x_1,20_ + 45 y_1_ <= 0
tol_l_2,1_: -13 x_2,1_ - 10 x_2,2_ - 20 x_2,3_ - 12 x_2,4_ - 19 x_2,5_ - 20 x_2,6_ - 15 x_2,7_ - 18 x_2,8_ - 13 x_2,9_ - 11 x_2,10_ - 11 x_2,11_ - 12 x_2,12_ - 20 x_2,13_ - 16 x_2,14_ - 13 x_2,15_ - 18 x_2,16_ - 10 x_2,17_ - 15 x_2,18_ - 15 x_2,19_ - 18 x_2,20_ + 46.79999992251396 y_2_ <= 0
tol_l_3,1_: -13 x_3,1_ - 10 x_3,2_ - 20 x_3,3_ - 12 x_3,4_ - 19 x_3,5_ - 20 x_3,6_ - 15 x_3,7_ - 18 x_3,8_ - 13 x_3,9_ - 11 x_3,10_ - 11 x_3,11_ - 12 x_3,12_ - 20 x_3,13_ - 16 x_3,14_ - 13 x_3,15_ - 18 x_3,16_ - 10 x_3,17_ - 15 x_3,18_ - 15 x_3,19_ - 18 x_3,20_ + 47.699999921023846 y_3_ <= 0
tol_l_4,1_: -13 x_4,1_ - 10 x_4,2_ - 20 x_4,3_ - 12 x_4,4_ - 19 x_4,5_ - 20 x_4,6_ - 15 x_4,7_ - 18 x_4,8_ - 13 x_4,9_ - 11 x_4,10_ - 11 x_4,11_ - 12 x_4,12_ - 20 x_4,13_ - 16 x_4,14_ - 13 x_4,15_ - 18 x_4,16_ - 10 x_4,17_ - 15 x_4,18_ - 15 x_4,19_ - 18 x_4,20_ + 44.09999992698431 y_4_ <= 0
tol_l_5,1_: -13 x_5,1_ - 10 x_5,2_ - 20 x_5,3_ - 12 x_5,4_ - 19 x_5,5_ - 20 x_5,6_ - 15 x_5,7_ - 18 x_5,8_ - 13 x_5,9_ - 11 x_5,10_ - 11 x_5,11_ - 12 x_5,12_ - 20 x_5,13_ - 16 x_5,14_ - 13 x_5,15_ - 18 x_5,16_ - 10 x_5,17_ - 15 x_5,18_ - 15 x_5,19_ - 18 x_5,20_ + 48.59999991953373 y_5_ <= 0
tol_l_6,1_: -13 x_6,1_ - 10 x_6,2_ - 20 x_6,3_ - 12 x_6,4_ - 19 x_6,5_ - 20 x_6,6_ - 15 x_6,7_ - 18 x_6,8_ - 13 x_6,9_ - 11 x_6,10_ - 11 x_6,11_ - 12 x_6,12_ - 20 x_6,13_ - 16 x_6,14_ - 13 x_6,15_ - 18 x_6,16_ - 10 x_6,17_ - 15 x_6,18_ - 15 x_6,19_ - 18 x_6,20_ + 45 y_6_ <= 0
tol_l_7,1_: -13 x_7,1_ - 10 x_7,2_ - 20 x_7,3_ - 12 x_7,4_ - 19 x_7,5_ - 20 x_7,6_ - 15 x_7,7_ - 18 x_7,8_ - 13 x_7,9_ - 11 x_7,10_ - 11 x_7,11_ - 12 x_7,12_ - 20 x_7,13_ - 16 x_7,14_ - 13 x_7,15_ - 18 x_7,16_ - 10 x_7,17_ - 15 x_7,18_ - 15 x_7,19_ - 18 x_7,20_ + 49.49999991804361 y_7_ <= 0
tol_l_8,1_: -13 x_8,1_ - 10 x_8,2_ - 20 x_8,3_ - 12 x_8,4_ - 19 x_8,5_ - 20 x_8,6_ - 15 x_8,7_ - 18 x_8,8_ - 13 x_8,9_ - 11 x_8,10_ - 11 x_8,11_ - 12 x_8,12_ - 20 x_8,13_ - 16 x_8,14_ - 13 x_8,15_ - 18 x_8,16_ - 10 x_8,17_ - 15 x_8,18_ - 15 x_8,19_ - 18 x_8,20_ + 45.89999992400408 y_8_ <= 0
tol_l_1,2_: -13 x_1,1_ - 10 x_1,2_ - 20 x_1,3_ - 12 x_1,4_ - 19 x_1,5_ - 20 x_1,6_ - 15 x_1,7_ - 18 x_1,8_ - 13 x_1,9_ - 11 x_1,10_ - 11 x_1,11_ - 12 x_1,12_ - 20 x_1,13_ - 16 x_1,14_ - 13 x_1,15_ - 18 x_1,16_ - 10 x_1,17_ - 15 x_1,18_ - 15 x_1,19_ - 18 x_1,20_ + 40.499999932944775 y_1_ <= 0
tol_l_2,2_: -13 x_2,1_ - 10 x_2,2_ - 20 x_2,3_ - 12 x_2,4_ - 19 x_2,5_ - 20 x_2,6_ - 15 x_2,7_ - 18 x_2,8_ - 13 x_2,9_ - 11 x_2,10_ - 11 x_2,11_ - 12 x_2,12_ - 20 x_2,13_ - 16 x_2,14_ - 13 x_2,15_ - 18 x_2,16_ - 10 x_2,17_ - 15 x_2,18_ - 15 x_2,19_ - 18 x_2,20_ + 46.79999992251396 y_2_ <= 0
tol_l_3,2_: -13 x_3,1_ - 10 x_3,2_ - 20 x_3,3_ - 12 x_3,4_ - 19 x_3,5_ - 20 x_3,6_ - 15 x_3,7_ - 18 x_3,8_ - 13 x_3,9_ - 11 x_3,10_ - 11 x_3,11_ - 12 x_3,12_ - 20 x_3,13_ - 16 x_3,14_ - 13 x_3,15_ - 18 x_3,16_ - 10 x_3,17_ - 15 x_3,18_ - 15 x_3,19_ - 18 x_3,20_ + 41.39999993145466 y_3_ <= 0
tol_l_4,2_: -13 x_4,1_ - 10 x_4,2_ - 20 x_4,3_ - 12 x_4,4_ - 19 x_4,5_ - 20 x_4,6_ - 15 x_4,7_ - 18 x_4,8_ - 13 x_4,9_ - 11 x_4,10_ - 11 x_4,11_ - 12 x_4,12_ - 20 x_4,13_ - 16 x_4,14_ - 13 x_4,15_ - 18 x_4,16_ - 10 x_4,17_ - 15 x_4,18_ - 15 x_4,19_ - 18 x_4,20_ + 45.89999992400408 y_4_ <= 0
tol_l_5,2_: -13 x_5,1_ - 10 x_5,2_ - 20 x_5,3_ - 12 x_5,4_ - 19 x_5,5_ - 20 x_5,6_ - 15 x_5,7_ - 18 x_5,8_ - 13 x_5,9_ - 11 x_5,10_ - 11 x_5,11_ - 12 x_5,12_ - 20 x_5,13_ - 16 x_5,14_ - 13 x_5,15_ - 18 x_5,16_ - 10 x_5,17_ - 15 x_5,18_ - 15 x_5,19_ - 18 x_5,20_ + 45 y_5_ <= 0
tol_l_6,2_: -13 x_6,1_ - 10 x_6,2_ - 20 x_6,3_ - 12 x_6,4_ - 19 x_6,5_ - 20 x_6,6_ - 15 x_6,7_ - 18 x_6,8_ - 13 x_6,9_ - 11 x_6,10_ - 11 x_6,11_ - 12 x_6,12_ - 20 x_6,13_ - 16 x_6,14_ - 13 x_6,15_ - 18 x_6,16_ - 10 x_6,17_ - 15 x_6,18_ - 15 x_6,19_ - 18 x_6,20_ + 44.09999992698431 y_6_ <= 0
tol_l_7,2_: -13 x_7,1_ - 10 x_7,2_ - 20 x_7,3_ - 12 x_7,4_ - 19 x_7,5_ - 20 x_7,6_ - 15 x_7,7_ - 18 x_7,8_ - 13 x_7,9_ - 11 x_7,10_ - 11 x_7,11_ - 12 x_7,12_ - 20 x_7,13_ - 16 x_7,14_ - 13 x_7,15_ - 18 x_7,16_ - 10 x_7,17_ - 15 x_7,18_ - 15 x_7,19_ - 18 x_7,20_ + 45.89999992400408 y_7_ <= 0
tol_l_8,2_: -13 x_8,1_ - 10 x_8,2_ - 20 x_8,3_ - 12 x_8,4_ - 19 x_8,5_ - 20 x_8,6_ - 15 x_8,7_ - 18 x_8,8_ - 13 x_8,9_ - 11 x_8,10_ - 11 x_8,11_ - 12 x_8,12_ - 20 x_8,13_ - 16 x_8,14_ - 13 x_8,15_ - 18 x_8,16_ - 10 x_8,17_ - 15 x_8,18_ - 15 x_8,19_ - 18 x_8,20_ + 45 y_8_ <= 0
tol_l_1,3_: -13 x_1,1_ - 10 x_1,2_ - 20 x_1,3_ - 12 x_1,4_ - 19 x_1,5_ - 20 x_1,6_ - 15 x_1,7_ - 18 x_1,8_ - 13 x_1,9_ - 11 x_1,10_ - 11 x_1,11_ - 12 x_1,12_ - 20 x_1,13_ - 16 x_1,14_ - 13 x_1,15_ - 18 x_1,16_ - 10 x_1,17_ - 15 x_1,18_ - 15 x_1,19_ - 18 x_1,20_ + 41.39999993145466 y_1_ <= 0
tol_l_2,3_: -13 x_2,1_ - 10 x_2,2_ - 20 x_2,3_ - 12 x_2,4_ - 19 x_2,5_ - 20 x_2,6_ - 15 x_2,7_ - 18 x_2,8_ - 13 x_2,9_ - 11 x_2,10_ - 11 x_2,11_ - 12 x_2,12_ - 20 x_2,13_ - 16 x_2,14_ - 13 x_2,15_ - 18 x_2,16_ - 10 x_2,17_ - 15 x_2,18_ - 15 x_2,19_ - 18 x_2,20_ + 44.09999992698431 y_2_ <= 0
tol_l_3,3_: -13 x_3,1_ - 10 x_3,2_ - 20 x_3,3_ - 12 x_3,4_ - 19 x_3,5_ - 20 x_3,6_ - 15 x_3,7_ - 18 x_3,8_ - 13 x_3,9_ - 11 x_3,10_ - 11 x_3,11_ - 12 x_3,12_ - 20 x_3,13_ - 16 x_3,14_ - 13 x_3,15_ - 18 x_3,16_ - 10 x_3,17_ - 15 x_3,18_ - 15 x_3,19_ - 18 x_3,20_ + 43.199999928474426 y_3_ <= 0
tol_l_4,3_: -13 x_4,1_ - 10 x_4,2_ - 20 x_4,3_ - 12 x_4,4_ - 19 x_4,5_ - 20 x_4,6_ - 15 x_4,7_ - 18 x_4,8_ - 13 x_4,9_ - 11 x_4,10_ - 11 x_4,11_ - 12 x_4,12_ - 20 x_4,13_ - 16 x_4,14_ - 13 x_4,15_ - 18 x_4,16_ - 10 x_4,17_ - 15 x_4,18_ - 15 x_4,19_ - 18 x_4,20_ + 42.29999992996454 y_4_ <= 0
tol_l_5,3_: -13 x_5,1_ - 10 x_5,2_ - 20 x_5,3_ - 12 x_5,4_ - 19 x_5,5_ - 20 x_5,6_ - 15 x_5,7_ - 18 x_5,8_ - 13 x_5,9_ - 11 x_5,10_ - 11 x_5,11_ - 12 x_5,12_ - 20 x_5,13_ - 16 x_5,14_ - 13 x_5,15_ - 18 x_5,16_ - 10 x_5,17_ - 15 x_5,18_ - 15 x_5,19_ - 18 x_5,20_ + 40.499999932944775 y_5_ <= 0
tol_l_6,3_: -13 x_6,1_ - 10 x_6,2_ - 20 x_6,3_ - 12 x_6,4_ - 19 x_6,5_ - 20 x_6,6_ - 15 x_6,7_ - 18 x_6,8_ - 13 x_6,9_ - 11 x_6,10_ - 11 x_6,11_ - 12 x_6,12_ - 20 x_6,13_ - 16 x_6,14_ - 13 x_6,15_ - 18 x_6,16_ - 10 x_6,17_ - 15 x_6,18_ - 15 x_6,19_ - 18 x_6,20_ + 45 y_6_ <= 0
tol_l_7,3_: -13 x_7,1_ - 10 x_7,2_ - 20 x_7,3_ - 12 x_7,4_ - 19 x_7,5_ - 20 x_7,6_ - 15 x_7,7_ - 18 x_7,8_ - 13 x_7,9_ - 11 x_7,10_ - 11 x_7,11_ - 12 x_7,12_ - 20 x_7,13_ - 16 x_7,14_ - 13 x_7,15_ - 18 x_7,16_ - 10 x_7,17_ - 15 x_7,18_ - 15 x_7,19_ - 18 x_7,20_ + 45.89999992400408 y_7_ <= 0
tol_l_8,3_: -13 x_8,1_ - 10 x_8,2_ - 20 x_8,3_ - 12 x_8,4_ - 19 x_8,5_ - 20 x_8,6_ - 15 x_8,7_ - 18 x_8,8_ - 13 x_8,9_ - 11 x_8,10_ - 11 x_8,11_ - 12 x_8,12_ - 20 x_8,13_ - 16 x_8,14_ - 13 x_8,15_ - 18 x_8,16_ - 10 x_8,17_ - 15 x_8,18_ - 15 x_8,19_ - 18 x_8,20_ + 46.79999992251396 y_8_ <= 0
tol_u_1,1_: 13 x_1,1_ + 10 x_1,2_ + 20 x_1,3_ + 12 x_1,4_ + 19 x_1,5_ + 20 x_1,6_ + 15 x_1,7_ + 18 x_1,8_ + 13 x_1,9_ + 11 x_1,10_ + 11 x_1,11_ + 12 x_1,12_ + 20 x_1,13_ + 16 x_1,14_ + 13 x_1,15_ + 18 x_1,16_ + 10 x_1,17_ + 15 x_1,18_ + 15 x_1,19_ + 18 x_1,20_ - 55 y_1_ <= 0
tol_u_2,1_: 13 x_2,1_ + 10 x_2,2_ + 20 x_2,3_ + 12 x_2,4_ + 19 x_2,5_ + 20 x_2,6_ + 15 x_2,7_ + 18 x_2,8_ + 13 x_2,9_ + 11 x_2,10_ + 11 x_2,11_ + 12 x_2,12_ + 20 x_2,13_ + 16 x_2,14_ + 13 x_2,15_ + 18 x_2,16_ + 10 x_2,17_ + 15 x_2,18_ + 15 x_2,19_ + 18 x_2,20_ - 57.20000007748604 y_2_ <= 0
tol_u_3,1_: 13 x_3,1_ + 10 x_3,2_ + 20 x_3,3_ + 12 x_3,4_ + 19 x_3,5_ + 20 x_3,6_ + 15 x_3,7_ + 18 x_3,8_ + 13 x_3,9_ + 11 x_3,10_ + 11 x_3,11_ + 12 x_3,12_ + 20 x_3,13_ + 16 x_3,14_ + 13 x_3,15_ + 18 x_3,16_ + 10 x_3,17_ + 15 x_3,18_ + 15 x_3,19_ + 18 x_3,20_ - 58.300000078976154 y_3_ <= 0
tol_u_4,1_: 13 x_4,1_ + 10 x_4,2_ + 20 x_4,3_ + 12 x_4,4_ + 19 x_4,5_ + 20 x_4,6_ + 15 x_4,7_ + 18 x_4,8_ + 13 x_4,9_ + 11 x_4,10_ + 11 x_4,11_ + 12 x_4,12_ + 20 x_4,13_ + 16 x_4,14_ + 13 x_4,15_ + 18 x_4,16_ + 10 x_4,17_ + 15 x_4,18_ + 15 x_4,19_ + 18 x_4,20_ - 53.90000007301569 y_4_ <= 0
tol_u_5,1_: 13 x_5,1_ + 10 x_5,2_ + 20 x_5,3_ + 12 x_5,4_ + 19 x_5,5_ + 20 x_5,6_ + 15 x_5,7_ + 18 x_5,8_ + 13 x_5,9_ + 11 x_5,10_ + 11 x_5,11_ + 12 x_5,12_ + 20 x_5,13_ + 16 x_5,14_ + 13 x_5,15_ + 18 x_5,16_ + 10 x_5,17_ + 15 x_5,18_ + 15 x_5,19_ + 18 x_5,20_ - 59.40000008046627 y_5_ <= 0
tol_u_6,1_: 13 x_6,1_ + 10 x_6,2_ + 20 x_6,3_ + 12 x_6,4_ + 19 x_6,5_ + 20 x_6,6_ + 15 x_6,7_ + 18 x_6,8_ + 13 x_6,9_ + 11 x_6,10_ + 11 x_6,11_ + 12 x_6,12_ + 20 x_6,13_ + 16 x_6,14_ + 13 x_6,15_ + 18 x_6,16_ + 10 x_6,17_ + 15 x_6,18_ + 15 x_6,19_ + 18 x_6,20_ - 55 y_6_ <= 0
tol_u_7,1_: 13 x_7,1_ + 10 x_7,2_ + 20 x_7,3_ + 12 x_7,4_ + 19 x_7,5_ + 20 x_7,6_ + 15 x_7,7_ + 18 x_7,8_ + 13 x_7,9_ + 11 x_7,10_ + 11 x_7,11_ + 12 x_7,12_ + 20 x_7,13_ + 16 x_7,14_ + 13 x_7,15_ + 18 x_7,16_ + 10 x_7,17_ + 15 x_7,18_ + 15 x_7,19_ + 18 x_7,20_ - 60.50000008195639 y_7_ <= 0
tol_u_8,1_: 13 x_8,1_ + 10 x_8,2_ + 20 x_8,3_ + 12 x_8,4_ + 19 x_8,5_ + 20 x_8,6_ + 15 x_8,7_ + 18 x_8,8_ + 13 x_8,9_ + 11 x_8,10_ + 11 x_8,11_ + 12 x_8,12_ + 20 x_8,13_ + 16 x_8,14_ + 13 x_8,15_ + 18 x_8,16_ + 10 x_8,17_ + 15 x_8,18_ + 15 x_8,19_ + 18 x_8,20_ - 56.10000007599592 y_8_ <= 0
tol_u_1,2_: 13 x_1,1_ + 10 x_1,2_ + 20 x_1,3_ + 12 x_1,4_ + 19 x_1,5_ + 20 x_1,6_ + 15 x_1,7_ + 18 x_1,8_ + 13 x_1,9_ + 11 x_1,10_ + 11 x_1,11_ + 12 x_1,12_ + 20 x_1,13_ + 16 x_1,14_ + 13 x_1,15_ + 18 x_1,16_ + 10 x_1,17_ + 15 x_1,18_ + 15 x_1,19_ + 18 x_1,20_ - 49.500000067055225 y_1_ <= 0
tol_u_2,2_: 13 x_2,1_ + 10 x_2,2_ + 20 x_2,3_ + 12 x_2,4_ + 19 x_2,5_ + 20 x_2,6_ + 15 x_2,7_ + 18 x_2,8_ + 13 x_2,9_ + 11 x_2,10_ + 11 x_2,11_ + 12 x_2,12_ + 20 x_2,13_ + 16 x_2,14_ + 13 x_2,15_ + 18 x_2,16_ + 10 x_2,17_ + 15 x_2,18_ + 15 x_2,19_ + 18 x_2,20_ - 57.20000007748604 y_2_ <= 0
tol_u_3,2_: 13 x_3,1_ + 10 x_3,2_ + 20 x_3,3_ + 12 x_3,4_ + 19 x_3,5_ + 20 x_3,6_ + 15 x_3,7_ + 18 x_3,8_ + 13 x_3,9_ + 11 x_3,10_ + 11 x_3,11_ + 12 x_3,12_ + 20 x_3,13_ + 16 x_3,14_ + 13 x_3,15_ + 18 x_3,16_ + 10 x_3,17_ + 15 x_3,18_ + 15 x_3,19_ + 18 x_3,20_ - 50.60000006854534 y_3_ <= 0
tol_u_4,2_: 13 x_4,1_ + 10 x_4,2_ + 20 x_4,3_ + 12 x_4,4_ + 19 x_4,5_ + 20 x_4,6_ + 15 x_4,7_ + 18 x_4,8_ + 13 x_4,9_ + 11 x_4,10_ + 11 x_4,11_ + 12 x_4,12_ + 20 x_4,13_ + 16 x_4,14_ + 13 x_4,15_ + 18 x_4,16_ + 10 x_4,17_ + 15 x_4,18_ + 15 x_4,19_ + 18 x_4,20_ - 56.10000007599592 y_4_ <= 0
tol_u_5,2_: 13 x_5,1_ + 10 x_5,2_ + 20 x_5,3_ + 12 x_5,4_ + 19 x_5,5_ + 20 x_5,6_ + 15 x_5,7_ + 18 x_5,8_ + 13 x_5,9_ + 11 x_5,10_ + 11 x_5,11_ + 12 x_5,12_ + 20 x_5,13_ + 16 x_5,14_ + 13 x_5,15_ + 18 x_5,16_ + 10 x_5,17_ + 15 x_5,18_ + 15 x_5,19_ + 18 x_5,20_ - 55 y_5_ <= 0
tol_u_6,2_: 13 x_6,1_ + 10 x_6,2_ + 20 x_6,3_ + 12 x_6,4_ + 19 x_6,5_ + 20 x_6,6_ + 15 x_6,7_ + 18 x_6,8_ + 13 x_6,9_ + 11 x_6,10_ + 11 x_6,11_ + 12 x_6,12_ + 20 x_6,13_ + 16 x_6,14_ + 13 x_6,15_ + 18 x_6,16_ + 10 x_6,17_ + 15 x_6,18_ + 15 x_6,19_ + 18 x_6,20_ - 53.90000007301569 y_6_ <= 0
tol_u_7,2_: 13 x_7,1_ + 10 x_7,2_ + 20 x_7,3_ + 12 x_7,4_ + 19 x_7,5_ + 20 x_7,6_ + 15 x_7,7_ + 18 x_7,8_ + 13 x_7,9_ + 11 x_7,10_ + 11 x_7,11_ + 12 x_7,12_ + 20 x_7,13_ + 16 x_7,14_ + 13 x_7,15_ + 18 x_7,16_ + 10 x_7,17_ + 15 x_7,18_ + 15 x_7,19_ + 18 x_7,20_ - 56.10000007599592 y_7_ <= 0
tol_u_8,2_: 13 x_8,1_ + 10 x_8,2_ + 20 x_8,3_ + 12 x_8,4_ + 19 x_8,5_ + 20 x_8,6_ + 15 x_8,7_ + 18 x_8,8_ + 13 x_8,9_ + 11 x_8,10_ + 11 x_8,11_ + 12 x_8,12_ + 20 x_8,13_ + 16 x_8,14_ + 13 x_8,15_ + 18 x_8,16_ + 10 x_8,17_ + 15 x_8,18_ + 15 x_8,19_ + 18 x_8,20_ - 55 y_8_ <= 0
tol_u_1,3_: 13 x_1,1_ + 10 x_1,2_ + 20 x_1,3_ + 12 x_1,4_ + 19 x_1,5_ + 20 x_1,6_ + 15 x_1,7_ + 18 x_1,8_ + 13 x_1,9_ + 11 x_1,10_ + 11 x_1,11_ + 12 x_1,12_ + 20 x_1,13_ + 16 x_1,14_ + 13 x_1,15_ + 18 x_1,16_ + 10 x_1,17_ + 15 x_1,18_ + 15 x_1,19_ + 18 x_1,20_ - 50.60000006854534 y_1_ <= 0
tol_u_2,3_: 13 x_2,1_ + 10 x_2,2_ + 20 x_2,3_ + 12 x_2,4_ + 19 x_2,5_ + 20 x_2,6_ + 15 x_2,7_ + 18 x_2,8_ + 13 x_2,9_ + 11 x_2,10_ + 11 x_2,11_ + 12 x_2,12_ + 20 x_2,13_ + 16 x_2,14_ + 13 x_2,15_ + 18 x_2,16_ + 10 x_2,17_ + 15 x_2,18_ + 15 x_2,19_ + 18 x_2,20_ - 53.90000007301569 y_2_ <= 0
tol_u_3,3_: 13 x_3,1_ + 10 x_3,2_ + 20 x_3,3_ + 12 x_3,4_ + 19 x_3,5_ + 20 x_3,6_ + 15 x_3,7_ + 18 x_3,8_ + 13 x_3,9_ + 11 x_3,10_ + 11 x_3,11_ + 12 x_3,12_ + 20 x_3,13_ + 16 x_3,14_ + 13 x_3,15_ + 18 x_3,16_ + 10 x_3,17_ + 15 x_3,18_ + 15 x_3,19_ + 18 x_3,20_ - 52.800000071525574 y_3_ <= 0
tol_u_4,3_: 13 x_4,1_ + 10 x_4,2_ + 20 x_4,3_ + 12 x_4,4_ + 19 x_4,5_ + 20 x_4,6_ + 15 x_4,7_ + 18 x_4,8_ + 13 x_4,9_ + 11 x_4,10_ + 11 x_4,11_ + 12 x_4,12_ + 20 x_4,13_ + 16 x_4,14_ + 13 x_4,15_ + 18 x_4,16_ + 10 x_4,17_ + 15 x_4,18_ + 15 x_4,19_ + 18 x_4,20_ - 51.70000007003546 y_4_ <= 0
tol_u_5,3_: 13 x_5,1_ + 10 x_5,2_ + 20 x_5,3_ + 12 x_5,4_ + 19 x_5,5_ + 20 x_5,6_ + 15 x_5,7_ + 18 x_5,8_ + 13 x_5,9_ + 11 x_5,10_ + 11 x_5,11_ + 12 x_5,12_ + 20 x_5,13_ + 16 x_5,14_ + 13 x_5,15_ + 18 x_5,16_ + 10 x_5,17_ + 15 x_5,18_ + 15 x_5,19_ + 18 x_5,20_ - 49.500000067055225 y_5_ <= 0
tol_u_6,3_: 13 x_6,1_ + 10 x_6,2_ + 20 x_6,3_ + 12 x_6,4_ + 19 x_6,5_ + 20 x_6,6_ + 15 x_6,7_ + 18 x_6,8_ + 13 x_6,9_ + 11 x_6,10_ + 11 x_6,11_ + 12 x_6,12_ + 20 x_6,13_ + 16 x_6,14_ + 13 x_6,15_ + 18 x_6,16_ + 10 x_6,17_ + 15 x_6,18_ + 15 x_6,19_ + 18 x_6,20_ - 55 y_6_ <= 0
tol_u_7,3_: 13 x_7,1_ + 10 x_7,2_ + 20 x_7,3_ + 12 x_7,4_ + 19 x_7,5_ + 20 x_7,6_ + 15 x_7,7_ + 18 x_7,8_ + 13 x_7,9_ + 11 x_7,10_ + 11 x_7,11_ + 12 x_7,12_ + 20 x_7,13_ + 16 x_7,14_ + 13 x_7,15_ + 18 x_7,16_ + 10 x_7,17_ + 15 x_7,18_ + 15 x_7,19_ + 18 x_7,20_ - 56.10000007599592 y_7_ <= 0
tol_u_8,3_: 13 x_8,1_ + 10 x_8,2_ + 20 x_8,3_ + 12 x_8,4_ + 19 x_8,5_ + 20 x_8,6_ + 15 x_8,7_ + 18 x_8,8_ + 13 x_8,9_ + 11 x_8,10_ + 11 x_8,11_ + 12 x_8,12_ + 20 x_8,13_ + 16 x_8,14_ + 13 x_8,15_ + 18 x_8,16_ + 10 x_8,17_ + 15 x_8,18_ + 15 x_8,19_ + 18 x_8,20_ - 57.20000007748604 y_8_ <= 0
low_k_1,1_:  <= 1
low_k_2,1_:  <= 1
low_k_3,1_:  <= 0
low_k_4,1_:  <= 1
low_k_5,1_:  <= 1
low_k_1,2_:  <= 1
low_k_2,2_:  <= 1
low_k_3,2_:  <= 0
low_k_4,2_:  <= 1
low_k_5,2_:  <= 1
low_k_1,3_:  <= 1
low_k_2,3_:  <= 1
low_k_3,3_:  <= 0
low_k_4,3_:  <= 1
low_k_5,3_:  <= 1
low_k_1,4_:  <= 1
low_k_2,4_:  <= 1
low_k_3,4_:  <= 0
low_k_4,4_:  <= 1
low_k_5,4_:  <= 1
low_k_1,5_:  <= 1
low_k_2,5_:  <= 1
low_k_3,5_:  <= 0
low_k_4,5_:  <= 1
low_k_5,5_:  <= 1
low_k_1,6_:  <= 1
low_k_2,6_:  <= 1
low_k_3,6_:  <= 0
low_k_4,6_:  <= 1
low_k_5,6_:  <= 1
low_k_1,7_:  <= 1
low_k_2,7_:  <= 1
low_k_3,7_:  <= 0
low_k_4,7_:  <= 1
low_k_5,7_:  <= 1
low_k_1,8_:  <= 1
low_k_2,8_:  <= 1
low_k_3,8_:  <= 0
low_k_4,8_:  <= 1
low_k_5,8_:  <= 1
upp_k_1,1_:  <= 0
upp_k_2,1_:  <= 0
upp_k_3,1_:  <= 0
upp_k_4,1_:  <= 0
upp_k_5,1_:  <= 0
upp_k_1,2_:  <= 0
upp_k_2,2_:  <= 0
upp_k_3,2_:  <= 0
upp_k_4,2_:  <= 0
upp_k_5,2_:  <= 0
upp_k_1,3_:  <= 0
upp_k_2,3_:  <= 0
upp_k_3,3_:  <= 0
upp_k_4,3_:  <= 0
upp_k_5,3_:  <= 0
upp_k_1,4_:  <= 0
upp_k_2,4_:  <= 0
upp_k_3,4_:  <= 0
upp_k_4,4_:  <= 0
upp_k_5,4_:  <= 0
upp_k_1,5_:  <= 0
upp_k_2,5_:  <= 0
upp_k_3,5_:  <= 0
upp_k_4,5_:  <= 0
upp_k_5,5_:  <= 0
upp_k_1,6_:  <= 0
upp_k_2,6_:  <= 0
upp_k_3,6_:  <= 0
upp_k_4,6_:  <= 0
upp_k_5,6_:  <= 0
upp_k_1,7_:  <= 0
upp_k_2,7_:  <= 0
upp_k_3,7_:  <= 0
upp_k_4,7_:  <= 0
upp_k_5,7_:  <= 0
upp_k_1,8_:  <= 0
upp_k_2,8_:  <= 0
upp_k_3,8_:  <= 0
upp_k_4,8_:  <= 0
upp_k_5,8_:  <= 0
bu_service_1_: 1 x_1,1_ + 1 x_2,1_ + 1 x_3,1_ + 1 x_4,1_ + 1 x_5,1_ + 1 x_6,1_ + 1 x_7,1_ + 1 x_8,1_ = 1
bu_service_2_: 1 x_1,2_ + 1 x_2,2_ + 1 x_3,2_ + 1 x_4,2_ + 1 x_5,2_ + 1 x_6,2_ + 1 x_7,2_ + 1 x_8,2_ = 1
bu_service_3_: 1 x_1,3_ + 1 x_2,3_ + 1 x_3,3_ + 1 x_4,3_ + 1 x_5,3_ + 1 x_6,3_ + 1 x_7,3_ + 1 x_8,3_ = 1
bu_service_4_: 1 x_1,4_ + 1 x_2,4_ + 1 x_3,4_ + 1 x_4,4_ + 1 x_5,4_ + 1 x_6,4_ + 1 x_7,4_ + 1 x_8,4_ = 1
bu_service_5_: 1 x_1,5_ + 1 x_2,5_ + 1 x_3,5_ + 1 x_4,5_ + 1 x_5,5_ + 1 x_6,5_ + 1 x_7,5_ + 1 x_8,5_ = 1
bu_service_6_: 1 x_1,6_ + 1 x_2,6_ + 1 x_3,6_ + 1 x_4,6_ + 1 x_5,6_ + 1 x_6,6_ + 1 x_7,6_ + 1 x_8,6_ = 1
bu_service_7_: 1 x_1,7_ + 1 x_2,7_ + 1 x_3,7_ + 1 x_4,7_ + 1 x_5,7_ + 1 x_6,7_ + 1 x_7,7_ + 1 x_8,7_ = 1
bu_service_8_: 1 x_1,8_ + 1 x_2,8_ + 1 x_3,8_ + 1 x_4,8_ + 1 x_5,8_ + 1 x_6,8_ + 1 x_7,8_ + 1 x_8,8_ = 1
bu_service_9_: 1 x_1,9_ + 1 x_2,9_ + 1 x_3,9_ + 1 x_4,9_ + 1 x_5,9_ + 1 x_6,9_ + 1 x_7,9_ + 1 x_8,9_ = 1
bu_service_10_: 1 x_1,10_ + 1 x_2,10_ + 1 x_3,10_ + 1 x_4,10_ + 1 x_5,10_ + 1 x_6,10_ + 1 x_7,10_ + 1 x_8,10_ = 1
bu_service_11_: 1 x_1,11_ + 1 x_2,11_ + 1 x_3,11_ + 1 x_4,11_ + 1 x_5,11_ + 1 x_6,11_ + 1 x_7,11_ + 1 x_8,11_ = 1
bu_service_12_: 1 x_1,12_ + 1 x_2,12_ + 1 x_3,12_ + 1 x_4,12_ + 1 x_5,12_ + 1 x_6,12_ + 1 x_7,12_ + 1 x_8,12_ = 1
bu_service_13_: 1 x_1,13_ + 1 x_2,13_ + 1 x_3,13_ + 1 x_4,13_ + 1 x_5,13_ + 1 x_6,13_ + 1 x_7,13_ + 1 x_8,13_ = 1
bu_service_14_: 1 x_1,14_ + 1 x_2,14_ + 1 x_3,14_ + 1 x_4,14_ + 1 x_5,14_ + 1 x_6,14_ + 1 x_7,14_ + 1 x_8,14_ = 1
bu_service_15_: 1 x_1,15_ + 1 x_2,15_ + 1 x_3,15_ + 1 x_4,15_ + 1 x_5,15_ + 1 x_6,15_ + 1 x_7,15_ + 1 x_8,15_ = 1
bu_service_16_: 1 x_1,16_ + 1 x_2,16_ + 1 x_3,16_ + 1 x_4,16_ + 1 x_5,16_ + 1 x_6,16_ + 1 x_7,16_ + 1 x_8,16_ = 1
bu_service_17_: 1 x_1,17_ + 1 x_2,17_ + 1 x_3,17_ + 1 x_4,17_ + 1 x_5,17_ + 1 x_6,17_ + 1 x_7,17_ + 1 x_8,17_ = 1
bu_service_18_: 1 x_1,18_ + 1 x_2,18_ + 1 x_3,18_ + 1 x_4,18_ + 1 x_5,18_ + 1 x_6,18_ + 1 x_7,18_ + 1 x_8,18_ = 1
bu_service_19_: 1 x_1,19_ + 1 x_2,19_ + 1 x_3,19_ + 1 x_4,19_ + 1 x_5,19_ + 1 x_6,19_ + 1 x_7,19_ + 1 x_8,19_ = 1
bu_service_20_: 1 x_1,20_ + 1 x_2,20_ + 1 x_3,20_ + 1 x_4,20_ + 1 x_5,20_ + 1 x_6,20_ + 1 x_7,20_ + 1 x_8,20_ = 1
cardinality: 1 y_1_ + 1 y_2_ + 1 y_3_ + 1 y_4_ + 1 y_5_ + 1 y_6_ + 1 y_7_ + 1 y_8_ = 6
Bounds
Binary
x_1,1_
x_2,1_
x_3,1_
x_4,1_
x_5,1_
x_6,1_
x_7,1_
x_8,1_
x_1,2_
x_2,2_
x_3,2_
x_4,2_
x_5,2_
x_6,2_
x_7,2_
x_8,2_
x_1,3_
x_2,3_
x_3,3_
x_4,3_
x_5,3_
x_6,3_
x_7,3_
x_8,3_
x_1,4_
x_2,4_
x_3,4_
x_4,4_
x_5,4_
x_6,4_
x_7,4_
x_8,4_
x_1,5_
x_2,5_
x_3,5_
x_4,5_
x_5,5_
x_6,5_
x_7,5_
x_8,5_
x_1,6_
x_2,6_
x_3,6_
x_4,6_
x_5,6_
x_6,6_
x_7,6_
x_8,6_
x_1,7_
x_2,7_
x_3,7_
x_4,7_
x_5,7_
x_6,7_
x_7,7_
x_8,7_
x_1,8_
x_2,8_
x_3,8_
x_4,8_
x_5,8_
x_6,8_
x_7,8_
x_8,8_
x_1,9_
x_2,9_
x_3,9_
x_4,9_
x_5,9_
x_6,9_
x_7,9_
x_8,9_
x_1,10_
x_2,10_
x_3,10_
x_4,10_
x_5,10_
x_6,10_
x_7,10_
x_8,10_
x_1,11_
x_2,11_
x_3,11_
x_4,11_
x_5,11_
x_6,11_
x_7,11_
x_8,11_
x_1,12_
x_2,12_
x_3,12_
x_4,12_
x_5,12_
x_6,12_
x_7,12_
x_8,12_
x_1,13_
x_2,13_
x_3,13_
x_4,13_
x_5,13_
x_6,13_
x_7,13_
x_8,13_
x_1,14_
x_2,14_
x_3,14_
x_4,14_
x_5,14_
x_6,14_
x_7,14_
x_8,14_
x_1,15_
x_2,15_
x_3,15_
x_4,15_
x_5,15_
x_6,15_
x_7,15_
x_8,15_
x_1,16_
x_2,16_
x_3,16_
x_4,16_
x_5,16_
x_6,16_
x_7,16_
x_8,16_
x_1,17_
x_2,17_
x_3,17_
x_4,17_
x_5,17_
x_6,17_
x_7,17_
x_8,17_
x_1,18_
x_2,18_
x_3,18_
x_4,18_
x_5,18_
x_6,18_
x_7,18_
x_8,18_
x_1,19_
x_2,19_
x_3,19_
x_4,19_
x_5,19_
x_6,19_
x_7,19_
x_8,19_
x_1,20_
x_2,20_
x_3,20_
x_4,20_
x_5,20_
x_6,20_
x_7,20_
x_8,20_
y_1_
y_2_
y_3_
y_4_
y_5_
y_6_
y_7_
y_8_
End
